db/data/2744023322654022263107467098174969666.z3.out
unsat
-------------------
123.350854961
